NAME : morphed18-2-17
COMMENT : Generated using the function morphInstances from the R-package netgen (Bossek,2015) - Number of clusters: 2 Alpha: 0.5
TYPE : TSP
DIMENSION : 18
EDGE_WEIGHT_TYPE : EUC_2D
NODE_COORD_SECTION
1 28.335696695 46.6166934203
2 72.138226584 37.8333132472
3 52.2516785459 76.3212501891
4 68.7493593837 60.4182948441
5 47.179937228 65.4106727563
6 58.0066147269 73.956484504
7 32.7329199972 76.4324160768
8 31.3244658025 14.1492438535
9 70.6026877454 56.8975347816
10 28.4430530119 43.0155699771
11 48.9308922129 74.881888568
12 17.595920778 25.5240612901
13 66.0946092484 40.2160904105
14 66.1277443857 8.6562254014
15 79.092101791 72.7196971355
16 71.0395291739 29.4080896087
17 59.1158081713 57.6851891502
18 35.6056006103 23.0280785748
EOF
